Maximize
	+ 1 x1 + 1 x2 + 1 x3 + 2 x4 
Maximize
	+ 2 x2 
Maximize
	- 1 x1 + 5 x2 + 6 x3 + 5 x4 
Subject To
	- 2 x2 + 1 x4 <= 10
	+ 2 x1 + 6 x4 <= 8
	+ 1 x1 - 4 x4 <= 7
	+ 1 x1 + 1 x2 - 1 x3 + 4 x4 <= 9
	- 2 x1 + 4 x2 + 1 x3 + 1 x4 <= 9
Bounds
	0 <= x1 <= 4
	0 <= x2 <= 4
	0 <= x3 <= 4
	0 <= x4 <= 4
Integers
	x1 x2 x3 x4 
End